\ LP format - for model browsing. Use MPS format to capture full model detail.
Minimize
  - 3 x0 + 4 x2 + 3 x4
Subject To
 constr(0): - 5 x0 - x1 - 5 x3 + 5 x4 >= -11
 constr(1): - 5 x0 - 4 x1 - 4 x2 - 3 x3 - 2 x4 <= 17
Bounds
 x0 <= 3
 x1 <= 1
 x2 <= 2
 x3 <= 5
 x4 <= 1
End
